0 8007981
1 7922953
5 7906404
7 7829251
8 7747846
10 7747424
13 7745377
15 7741399
16 7693936
19 7681497
23 7681224
24 7676453
34 7671803
36 7669943
41 7628975
44 7364587
46 7359996
47 7343668
50 7313054
54 7297443
57 7296951
60 7296839
63 7296602
66 7292400
67 7288519
71 7279697
72 7270233
76 7265451
78 7264723
81 7263866
97 7261606
102 7260723
108 7226527
113 7225198
127 7224383
128 7214229
143 7205285
145 7198058
153 7197953
161 7197711
164 7197321
181 7196710
192 7196178
200 7195707
205 7195618
257 7195281
260 7191678
263 7190449
272 7190351
303 7190232
434 7189315
526 7188545
1232 7187664
1242 7187650
